26603.81,49.1,54.07
25960.63,50.31,55.41
28185.16,46.34,51.04
26237.73,49.78,54.82
27452.67,47.58,52.4
34224.0,38.17,42.03
27618.96,47.29,52.08
29835.4,43.78,48.21
29426.94,44.39,48.88
32048.12,40.76,44.88
32750.61,39.88,43.92
30832.85,42.36,46.65
28984.4,45.07,49.63
26581.37,49.14,54.11
28977.28,45.08,49.64
31098.39,42.0,46.25
29007.86,45.03,49.59
28842.2,45.29,49.87
27102.01,48.19,53.07
27892.9,46.83,51.57
